c IN1002 Introduction to Algorithms!
c top secret ID string d1dd0c7346
c 4 variables and 6 clauses
p cnf 4 6
c each line is a clause, 0 marks the end
-3 -3 -4 0
1 -4 0
-1 -1 2 0
-1 -2 3 0
-1 1 1 0
-4 -1 1 0
c Good luck!
